; CALLER SWAP1 POP => POP CALLER
(set-option :produce-proofs true)
; 
(set-info :status unknown)
(declare-fun storage_t ((_ BitVec 256) (_ BitVec 256) Int (_ BitVec 256)) (_ BitVec 256))
(declare-fun storage_s ((_ BitVec 256) (_ BitVec 256) Int (_ BitVec 256)) (_ BitVec 256))
(declare-fun exc_halt_t (Int) Bool)
(declare-fun exc_halt_s (Int) Bool)
(declare-fun stack_t ((_ BitVec 256) (_ BitVec 256) Int (_ BitVec 6)) (_ BitVec 256))
(declare-fun stack_s ((_ BitVec 256) (_ BitVec 256) Int (_ BitVec 6)) (_ BitVec 256))
(declare-fun sc_t (Int) (_ BitVec 6))
(declare-fun sc_s (Int) (_ BitVec 6))
(declare-fun used_gas_t ((_ BitVec 256) (_ BitVec 256) Int) Int)
(declare-fun used_gas_s ((_ BitVec 256) (_ BitVec 256) Int) Int)
(assert
 (exists ((x_0 (_ BitVec 256)) (x_CALLER (_ BitVec 256)) )(let (($x8530 (forall ((w (_ BitVec 256)) )(let ((?x4081 (storage_t x_0 x_CALLER 2 w)))
 (let ((?x11616 (storage_s x_0 x_CALLER 3 w)))
 (= ?x11616 ?x4081))))
 ))
 (let (($x2163 (exc_halt_t 2)))
 (let (($x292 (exc_halt_s 3)))
 (let (($x7382 (= $x292 $x2163)))
 (let (($x3832 (forall ((n (_ BitVec 6)) )(let ((?x9301 (stack_t x_0 x_CALLER 2 n)))
 (let ((?x799 (stack_s x_0 x_CALLER 3 n)))
 (let (($x7887 (= ?x799 ?x9301)))
 (or (bvsle (sc_t 2) n) $x7887)))))
 ))
 (let ((?x2714 (sc_t 2)))
 (let ((?x275 (sc_s 3)))
 (let (($x8274 (= ?x275 ?x2714)))
 (let ((?x5661 (used_gas_t x_0 x_CALLER 0)))
 (let ((?x9776 (used_gas_s x_0 x_CALLER 0)))
 (let (($x4565 (= ?x9776 ?x5661)))
 (let (($x5086 (forall ((w (_ BitVec 256)) )(let ((?x103 (storage_t x_0 x_CALLER 0 w)))
 (let ((?x2067 (storage_s x_0 x_CALLER 0 w)))
 (= ?x2067 ?x103))))
 ))
 (let (($x56 (exc_halt_t 0)))
 (let (($x57 (exc_halt_s 0)))
 (let (($x58 (= $x57 $x56)))
 (let (($x7952 (forall ((n (_ BitVec 6)) )(let ((?x4155 (stack_t x_0 x_CALLER 0 n)))
 (let ((?x7980 (stack_s x_0 x_CALLER 0 n)))
 (let (($x5488 (= ?x7980 ?x4155)))
 (let ((?x63 (sc_t 0)))
 (let (($x4813 (bvsle ?x63 n)))
 (or $x4813 $x5488)))))))
 ))
 (let ((?x63 (sc_t 0)))
 (let ((?x72 (sc_s 0)))
 (let (($x73 (= ?x72 ?x63)))
 (let (($x8377 (exc_halt_t 1)))
 (let (($x6920 (or $x8377 (not (= ((_ extract 6 6) (bvadd (_ bv1 7) (concat (_ bv0 1) (sc_t 1)))) (_ bv0 1))))))
 (let (($x867 (forall ((w (_ BitVec 256)) )(let ((?x5524 (storage_t x_0 x_CALLER 1 w)))
 (let ((?x4081 (storage_t x_0 x_CALLER 2 w)))
 (= ?x4081 ?x5524))))
 ))
 (let (($x740 (forall ((n (_ BitVec 6)) )(or (= (stack_t x_0 x_CALLER 2 n) (stack_t x_0 x_CALLER 1 n)) (bvsle (sc_t 1) n)))
 ))
 (let (($x10018 (= (used_gas_t x_0 x_CALLER 2) (+ 2 (used_gas_t x_0 x_CALLER 1)))))
 (let (($x669 (forall ((w (_ BitVec 256)) )(let ((?x103 (storage_t x_0 x_CALLER 0 w)))
 (let ((?x5524 (storage_t x_0 x_CALLER 1 w)))
 (= ?x5524 ?x103))))
 ))
 (let (($x4078 (forall ((n (_ BitVec 6)) )(or (= (stack_t x_0 x_CALLER 1 n) (stack_t x_0 x_CALLER 0 n)) (bvsle (bvadd (_ bv63 6) (sc_t 0)) n)))
 ))
 (let (($x8248 (= $x292 (or (exc_halt_s 2) (not (bvsle (_ bv0 6) (bvadd (_ bv63 6) (sc_s 2))))))))
 (let (($x6423 (forall ((w (_ BitVec 256)) )(let ((?x8356 (storage_s x_0 x_CALLER 2 w)))
 (let ((?x11616 (storage_s x_0 x_CALLER 3 w)))
 (= ?x11616 ?x8356))))
 ))
 (let (($x667 (forall ((n (_ BitVec 6)) )(or (bvsle (bvadd (_ bv63 6) (sc_s 2)) n) (= (stack_s x_0 x_CALLER 3 n) (stack_s x_0 x_CALLER 2 n))))
 ))
 (let (($x6969 (= (used_gas_s x_0 x_CALLER 3) (+ 2 (used_gas_s x_0 x_CALLER 2)))))
 (let (($x247 (exc_halt_s 2)))
 (let (($x9849 (= $x247 (or (exc_halt_s 1) (not (bvsle (_ bv0 6) (bvadd (_ bv62 6) (sc_s 1))))))))
 (let (($x3073 (forall ((w (_ BitVec 256)) )(let ((?x6872 (storage_s x_0 x_CALLER 1 w)))
 (let ((?x8356 (storage_s x_0 x_CALLER 2 w)))
 (= ?x8356 ?x6872))))
 ))
 (let (($x5943 (forall ((n (_ BitVec 6)) )(or (bvsle (bvadd (_ bv62 6) (sc_s 1)) n) (= (stack_s x_0 x_CALLER 2 n) (stack_s x_0 x_CALLER 1 n))))
 ))
 (let ((?x154 (sc_s 1)))
 (let ((?x218 (sc_s 2)))
 (let (($x10978 (= ?x218 ?x154)))
 (let ((?x7894 (used_gas_s x_0 x_CALLER 2)))
 (let (($x9260 (= (stack_s x_0 x_CALLER 2 (bvadd (_ bv62 6) ?x218)) (stack_s x_0 x_CALLER 1 (bvadd (_ bv63 6) ?x154)))))
 (let (($x11137 (= (stack_s x_0 x_CALLER 2 (bvadd (_ bv63 6) ?x218)) (stack_s x_0 x_CALLER 1 (bvadd (_ bv62 6) ?x154)))))
 (let (($x189 (exc_halt_s 1)))
 (let (($x8008 (= $x189 (or $x57 (not (= ((_ extract 6 6) (bvadd (_ bv1 7) (concat (_ bv0 1) ?x72))) (_ bv0 1)))))))
 (let (($x2677 (forall ((w (_ BitVec 256)) )(let ((?x2067 (storage_s x_0 x_CALLER 0 w)))
 (let ((?x6872 (storage_s x_0 x_CALLER 1 w)))
 (= ?x6872 ?x2067))))
 ))
 (let (($x3497 (forall ((n (_ BitVec 6)) )(or (bvsle (sc_s 0) n) (= (stack_s x_0 x_CALLER 1 n) (stack_s x_0 x_CALLER 0 n))))
 ))
 (let (($x8855 (forall ((w (_ BitVec 256)) )(let ((?x2067 (storage_s x_0 x_CALLER 0 w)))
 (= ?x2067 (_ bv0 256))))
 ))
 (let (($x3387 (= ?x9776 0)))
 (let (($x5107 (not $x57)))
 (let (($x382 (= (stack_s x_0 x_CALLER 0 (_ bv0 6)) x_0)))
 (let (($x7865 (= ?x72 (_ bv1 6))))
 (and $x7865 $x382 $x5107 $x3387 $x8855 (= (stack_s x_0 x_CALLER 1 ?x72) x_CALLER) (= (used_gas_s x_0 x_CALLER 1) (+ 2 ?x9776)) (= ?x154 (bvadd (_ bv1 6) ?x72)) $x3497 $x2677 $x8008 $x11137 $x9260 (= ?x7894 (+ 3 (used_gas_s x_0 x_CALLER 1))) $x10978 $x5943 $x3073 $x9849 $x6969 (= ?x275 (bvadd (_ bv63 6) ?x218)) $x667 $x6423 $x8248 (= (used_gas_t x_0 x_CALLER 1) (+ 2 ?x5661)) (= (sc_t 1) (bvadd (_ bv63 6) ?x63)) $x4078 $x669 (= $x8377 (or $x56 (not (bvsle (_ bv0 6) (bvadd (_ bv63 6) ?x63))))) (= (stack_t x_0 x_CALLER 2 (sc_t 1)) x_CALLER) $x10018 (= ?x2714 (bvadd (_ bv1 6) (sc_t 1))) $x740 $x867 (= $x2163 $x6920) $x73 $x7952 $x58 $x5086 $x4565 (not (and $x8274 $x3832 $x7382 $x8530)))))))))))))))))))))))))))))))))))))))))))))))))))))
 )
(check-sat)
(get-proof)
